(set-info :Origin "This instance was generated by: BanditFuzz-- an RL fuzzer for SMT solvers" )
(set-info :Author "Joe Scott, Fed Mora, Vijay Ganesh" )
(set-info :Contact "Joe Scott, joseph.scott@uwaterloo.ca")
(set-logic QF_BV)
(declare-const bool_0 Bool)
(declare-const bool_1 Bool)
(declare-const bool_2 Bool)
(declare-const bool_3 Bool)
(declare-const bool_4 Bool)
(declare-const bv_0 (_ BitVec 32))
(declare-const bv_1 (_ BitVec 32))
(declare-const bv_2 (_ BitVec 32))
(declare-const bv_3 (_ BitVec 32))
(declare-const bv_4 (_ BitVec 32))
(assert (not (or (bvsgt #xad4eefe7  bv_2) (bvsgt #xb0b24ff6  bv_2))))
(assert (xor (bvugt (bvnor #x12344427  bv_1) (bvurem #xe280d2ab  #xb03d1674 )) (bvult (bvlshr bv_0 #x7f581567 ) (bvor bv_4 #x702b86c6 ))))
(assert (=> (or (bvsle #x15485bda  #x0e99f6ac ) (bvuge bv_4 bv_0)) (bvule (bvsrem bv_2 bv_4) (bvor bv_0 #xcb68fc97 ))))
(assert (bvule (bvsrem (bvsub bv_3 #xc394ace3 ) (bvsrem bv_1 bv_3)) (bvlshr (bvadd bv_0 bv_2) (bvashr bv_3 bv_1))))
(assert (bvult (bvnor (bvxnor #xd0550380  bv_4) (bvand bv_0 bv_3)) (bvnor (bvadd #x0f9eb905  #x28509ffa ) (bvshl #xc0575b4d  bv_2))))
(check-sat)
(exit)
